(set-logic QF_LRA)
(declare-fun T1 () Real )
(declare-fun T2 () Real )
(declare-fun T3 () Real )
(declare-fun T4 () Real )
(declare-fun T5 () Real )
(declare-fun T6 () Real )
(declare-fun T7 () Real )
(declare-fun T8 () Real )
(declare-fun Z () Real )
(declare-fun k () Real )
(assert (let
(( $goal (>= Z k) ))
(let
((
$phi ( and 
(or ( <= ( + T1 43 ) T2 ) ( <= ( + T2 30 ) T1 ) )
(or ( <= ( + T1 67 )  ( + T2 30 ) ) ( <= ( + T2 122 )( + T1 43 ) ) )
(or ( <= ( + T1 113 )  ( + T2 122 ) ) ( <= ( + T2 137 )( + T1 67 ) ) )
(or ( <= ( + T1 129 )  ( + T2 137 ) ) ( <= ( + T2 160 )( + T1 113 ) ) )
(or ( <= ( + T1 223 )  ( + T2 160 ) ) ( <= ( + T2 240 )( + T1 129 ) ) )
(or ( <= ( + T1 282 )  ( + T2 240 ) ) ( <= ( + T2 249 )( + T1 223 ) ) )
(or ( <= ( + T1 43 ) T3 ) ( <= ( + T3 23 ) T1 ) )
(or ( <= ( + T1 67 )  ( + T3 23 ) ) ( <= ( + T3 55 )( + T1 43 ) ) )
(or ( <= ( + T1 113 )  ( + T3 55 ) ) ( <= ( + T3 120 )( + T1 67 ) ) )
(or ( <= ( + T1 129 )  ( + T3 120 ) ) ( <= ( + T3 180 )( + T1 113 ) ) )
(or ( <= ( + T1 223 )  ( + T3 180 ) ) ( <= ( + T3 201 )( + T1 129 ) ) )
(or ( <= ( + T1 282 )  ( + T3 201 ) ) ( <= ( + T3 257 )( + T1 223 ) ) )
(or ( <= ( + T1 43 ) T4 ) ( <= ( + T4 73 ) T1 ) )
(or ( <= ( + T1 67 )  ( + T4 73 ) ) ( <= ( + T4 120 )( + T1 43 ) ) )
(or ( <= ( + T1 113 )  ( + T4 120 ) ) ( <= ( + T4 163 )( + T1 67 ) ) )
(or ( <= ( + T1 129 )  ( + T4 163 ) ) ( <= ( + T4 246 )( + T1 113 ) ) )
(or ( <= ( + T1 223 )  ( + T4 246 ) ) ( <= ( + T4 325 )( + T1 129 ) ) )
(or ( <= ( + T1 282 )  ( + T4 325 ) ) ( <= ( + T4 400 )( + T1 223 ) ) )
(or ( <= ( + T1 43 ) T5 ) ( <= ( + T5 65 ) T1 ) )
(or ( <= ( + T1 67 )  ( + T5 65 ) ) ( <= ( + T5 67 )( + T1 43 ) ) )
(or ( <= ( + T1 113 )  ( + T5 67 ) ) ( <= ( + T5 85 )( + T1 67 ) ) )
(or ( <= ( + T1 129 )  ( + T5 85 ) ) ( <= ( + T5 183 )( + T1 113 ) ) )
(or ( <= ( + T1 223 )  ( + T5 183 ) ) ( <= ( + T5 221 )( + T1 129 ) ) )
(or ( <= ( + T1 282 )  ( + T5 221 ) ) ( <= ( + T5 241 )( + T1 223 ) ) )
(or ( <= ( + T1 43 ) T6 ) ( <= ( + T6 92 ) T1 ) )
(or ( <= ( + T1 67 )  ( + T6 92 ) ) ( <= ( + T6 124 )( + T1 43 ) ) )
(or ( <= ( + T1 113 )  ( + T6 124 ) ) ( <= ( + T6 220 )( + T1 67 ) ) )
(or ( <= ( + T1 129 )  ( + T6 220 ) ) ( <= ( + T6 257 )( + T1 113 ) ) )
(or ( <= ( + T1 223 )  ( + T6 257 ) ) ( <= ( + T6 304 )( + T1 129 ) ) )
(or ( <= ( + T1 282 )  ( + T6 304 ) ) ( <= ( + T6 345 )( + T1 223 ) ) )
(or ( <= ( + T1 43 ) T7 ) ( <= ( + T7 47 ) T1 ) )
(or ( <= ( + T1 67 )  ( + T7 47 ) ) ( <= ( + T7 75 )( + T1 43 ) ) )
(or ( <= ( + T1 113 )  ( + T7 75 ) ) ( <= ( + T7 107 )( + T1 67 ) ) )
(or ( <= ( + T1 129 )  ( + T7 107 ) ) ( <= ( + T7 168 )( + T1 113 ) ) )
(or ( <= ( + T1 223 )  ( + T7 168 ) ) ( <= ( + T7 218 )( + T1 129 ) ) )
(or ( <= ( + T1 282 )  ( + T7 218 ) ) ( <= ( + T7 281 )( + T1 223 ) ) )
(or ( <= ( + T1 43 ) T8 ) ( <= ( + T8 22 ) T1 ) )
(or ( <= ( + T1 67 )  ( + T8 22 ) ) ( <= ( + T8 94 )( + T1 43 ) ) )
(or ( <= ( + T1 113 )  ( + T8 94 ) ) ( <= ( + T8 188 )( + T1 67 ) ) )
(or ( <= ( + T1 129 )  ( + T8 188 ) ) ( <= ( + T8 274 )( + T1 113 ) ) )
(or ( <= ( + T1 223 )  ( + T8 274 ) ) ( <= ( + T8 357 )( + T1 129 ) ) )
(or ( <= ( + T1 282 )  ( + T8 357 ) ) ( <= ( + T8 424 )( + T1 223 ) ) )
(or ( <= ( + T2 30 ) T3 ) ( <= ( + T3 23 ) T2 ) )
(or ( <= ( + T2 122 )  ( + T3 23 ) ) ( <= ( + T3 55 )( + T2 30 ) ) )
(or ( <= ( + T2 137 )  ( + T3 55 ) ) ( <= ( + T3 120 )( + T2 122 ) ) )
(or ( <= ( + T2 160 )  ( + T3 120 ) ) ( <= ( + T3 180 )( + T2 137 ) ) )
(or ( <= ( + T2 240 )  ( + T3 180 ) ) ( <= ( + T3 201 )( + T2 160 ) ) )
(or ( <= ( + T2 249 )  ( + T3 201 ) ) ( <= ( + T3 257 )( + T2 240 ) ) )
(or ( <= ( + T2 30 ) T4 ) ( <= ( + T4 73 ) T2 ) )
(or ( <= ( + T2 122 )  ( + T4 73 ) ) ( <= ( + T4 120 )( + T2 30 ) ) )
(or ( <= ( + T2 137 )  ( + T4 120 ) ) ( <= ( + T4 163 )( + T2 122 ) ) )
(or ( <= ( + T2 160 )  ( + T4 163 ) ) ( <= ( + T4 246 )( + T2 137 ) ) )
(or ( <= ( + T2 240 )  ( + T4 246 ) ) ( <= ( + T4 325 )( + T2 160 ) ) )
(or ( <= ( + T2 249 )  ( + T4 325 ) ) ( <= ( + T4 400 )( + T2 240 ) ) )
(or ( <= ( + T2 30 ) T5 ) ( <= ( + T5 65 ) T2 ) )
(or ( <= ( + T2 122 )  ( + T5 65 ) ) ( <= ( + T5 67 )( + T2 30 ) ) )
(or ( <= ( + T2 137 )  ( + T5 67 ) ) ( <= ( + T5 85 )( + T2 122 ) ) )
(or ( <= ( + T2 160 )  ( + T5 85 ) ) ( <= ( + T5 183 )( + T2 137 ) ) )
(or ( <= ( + T2 240 )  ( + T5 183 ) ) ( <= ( + T5 221 )( + T2 160 ) ) )
(or ( <= ( + T2 249 )  ( + T5 221 ) ) ( <= ( + T5 241 )( + T2 240 ) ) )
(or ( <= ( + T2 30 ) T6 ) ( <= ( + T6 92 ) T2 ) )
(or ( <= ( + T2 122 )  ( + T6 92 ) ) ( <= ( + T6 124 )( + T2 30 ) ) )
(or ( <= ( + T2 137 )  ( + T6 124 ) ) ( <= ( + T6 220 )( + T2 122 ) ) )
(or ( <= ( + T2 160 )  ( + T6 220 ) ) ( <= ( + T6 257 )( + T2 137 ) ) )
(or ( <= ( + T2 240 )  ( + T6 257 ) ) ( <= ( + T6 304 )( + T2 160 ) ) )
(or ( <= ( + T2 249 )  ( + T6 304 ) ) ( <= ( + T6 345 )( + T2 240 ) ) )
(or ( <= ( + T2 30 ) T7 ) ( <= ( + T7 47 ) T2 ) )
(or ( <= ( + T2 122 )  ( + T7 47 ) ) ( <= ( + T7 75 )( + T2 30 ) ) )
(or ( <= ( + T2 137 )  ( + T7 75 ) ) ( <= ( + T7 107 )( + T2 122 ) ) )
(or ( <= ( + T2 160 )  ( + T7 107 ) ) ( <= ( + T7 168 )( + T2 137 ) ) )
(or ( <= ( + T2 240 )  ( + T7 168 ) ) ( <= ( + T7 218 )( + T2 160 ) ) )
(or ( <= ( + T2 249 )  ( + T7 218 ) ) ( <= ( + T7 281 )( + T2 240 ) ) )
(or ( <= ( + T2 30 ) T8 ) ( <= ( + T8 22 ) T2 ) )
(or ( <= ( + T2 122 )  ( + T8 22 ) ) ( <= ( + T8 94 )( + T2 30 ) ) )
(or ( <= ( + T2 137 )  ( + T8 94 ) ) ( <= ( + T8 188 )( + T2 122 ) ) )
(or ( <= ( + T2 160 )  ( + T8 188 ) ) ( <= ( + T8 274 )( + T2 137 ) ) )
(or ( <= ( + T2 240 )  ( + T8 274 ) ) ( <= ( + T8 357 )( + T2 160 ) ) )
(or ( <= ( + T2 249 )  ( + T8 357 ) ) ( <= ( + T8 424 )( + T2 240 ) ) )
(or ( <= ( + T3 23 ) T4 ) ( <= ( + T4 73 ) T3 ) )
(or ( <= ( + T3 55 )  ( + T4 73 ) ) ( <= ( + T4 120 )( + T3 23 ) ) )
(or ( <= ( + T3 120 )  ( + T4 120 ) ) ( <= ( + T4 163 )( + T3 55 ) ) )
(or ( <= ( + T3 180 )  ( + T4 163 ) ) ( <= ( + T4 246 )( + T3 120 ) ) )
(or ( <= ( + T3 201 )  ( + T4 246 ) ) ( <= ( + T4 325 )( + T3 180 ) ) )
(or ( <= ( + T3 257 )  ( + T4 325 ) ) ( <= ( + T4 400 )( + T3 201 ) ) )
(or ( <= ( + T3 23 ) T5 ) ( <= ( + T5 65 ) T3 ) )
(or ( <= ( + T3 55 )  ( + T5 65 ) ) ( <= ( + T5 67 )( + T3 23 ) ) )
(or ( <= ( + T3 120 )  ( + T5 67 ) ) ( <= ( + T5 85 )( + T3 55 ) ) )
(or ( <= ( + T3 180 )  ( + T5 85 ) ) ( <= ( + T5 183 )( + T3 120 ) ) )
(or ( <= ( + T3 201 )  ( + T5 183 ) ) ( <= ( + T5 221 )( + T3 180 ) ) )
(or ( <= ( + T3 257 )  ( + T5 221 ) ) ( <= ( + T5 241 )( + T3 201 ) ) )
(or ( <= ( + T3 23 ) T6 ) ( <= ( + T6 92 ) T3 ) )
(or ( <= ( + T3 55 )  ( + T6 92 ) ) ( <= ( + T6 124 )( + T3 23 ) ) )
(or ( <= ( + T3 120 )  ( + T6 124 ) ) ( <= ( + T6 220 )( + T3 55 ) ) )
(or ( <= ( + T3 180 )  ( + T6 220 ) ) ( <= ( + T6 257 )( + T3 120 ) ) )
(or ( <= ( + T3 201 )  ( + T6 257 ) ) ( <= ( + T6 304 )( + T3 180 ) ) )
(or ( <= ( + T3 257 )  ( + T6 304 ) ) ( <= ( + T6 345 )( + T3 201 ) ) )
(or ( <= ( + T3 23 ) T7 ) ( <= ( + T7 47 ) T3 ) )
(or ( <= ( + T3 55 )  ( + T7 47 ) ) ( <= ( + T7 75 )( + T3 23 ) ) )
(or ( <= ( + T3 120 )  ( + T7 75 ) ) ( <= ( + T7 107 )( + T3 55 ) ) )
(or ( <= ( + T3 180 )  ( + T7 107 ) ) ( <= ( + T7 168 )( + T3 120 ) ) )
(or ( <= ( + T3 201 )  ( + T7 168 ) ) ( <= ( + T7 218 )( + T3 180 ) ) )
(or ( <= ( + T3 257 )  ( + T7 218 ) ) ( <= ( + T7 281 )( + T3 201 ) ) )
(or ( <= ( + T3 23 ) T8 ) ( <= ( + T8 22 ) T3 ) )
(or ( <= ( + T3 55 )  ( + T8 22 ) ) ( <= ( + T8 94 )( + T3 23 ) ) )
(or ( <= ( + T3 120 )  ( + T8 94 ) ) ( <= ( + T8 188 )( + T3 55 ) ) )
(or ( <= ( + T3 180 )  ( + T8 188 ) ) ( <= ( + T8 274 )( + T3 120 ) ) )
(or ( <= ( + T3 201 )  ( + T8 274 ) ) ( <= ( + T8 357 )( + T3 180 ) ) )
(or ( <= ( + T3 257 )  ( + T8 357 ) ) ( <= ( + T8 424 )( + T3 201 ) ) )
(or ( <= ( + T4 73 ) T5 ) ( <= ( + T5 65 ) T4 ) )
(or ( <= ( + T4 120 )  ( + T5 65 ) ) ( <= ( + T5 67 )( + T4 73 ) ) )
(or ( <= ( + T4 163 )  ( + T5 67 ) ) ( <= ( + T5 85 )( + T4 120 ) ) )
(or ( <= ( + T4 246 )  ( + T5 85 ) ) ( <= ( + T5 183 )( + T4 163 ) ) )
(or ( <= ( + T4 325 )  ( + T5 183 ) ) ( <= ( + T5 221 )( + T4 246 ) ) )
(or ( <= ( + T4 400 )  ( + T5 221 ) ) ( <= ( + T5 241 )( + T4 325 ) ) )
(or ( <= ( + T4 73 ) T6 ) ( <= ( + T6 92 ) T4 ) )
(or ( <= ( + T4 120 )  ( + T6 92 ) ) ( <= ( + T6 124 )( + T4 73 ) ) )
(or ( <= ( + T4 163 )  ( + T6 124 ) ) ( <= ( + T6 220 )( + T4 120 ) ) )
(or ( <= ( + T4 246 )  ( + T6 220 ) ) ( <= ( + T6 257 )( + T4 163 ) ) )
(or ( <= ( + T4 325 )  ( + T6 257 ) ) ( <= ( + T6 304 )( + T4 246 ) ) )
(or ( <= ( + T4 400 )  ( + T6 304 ) ) ( <= ( + T6 345 )( + T4 325 ) ) )
(or ( <= ( + T4 73 ) T7 ) ( <= ( + T7 47 ) T4 ) )
(or ( <= ( + T4 120 )  ( + T7 47 ) ) ( <= ( + T7 75 )( + T4 73 ) ) )
(or ( <= ( + T4 163 )  ( + T7 75 ) ) ( <= ( + T7 107 )( + T4 120 ) ) )
(or ( <= ( + T4 246 )  ( + T7 107 ) ) ( <= ( + T7 168 )( + T4 163 ) ) )
(or ( <= ( + T4 325 )  ( + T7 168 ) ) ( <= ( + T7 218 )( + T4 246 ) ) )
(or ( <= ( + T4 400 )  ( + T7 218 ) ) ( <= ( + T7 281 )( + T4 325 ) ) )
(or ( <= ( + T4 73 ) T8 ) ( <= ( + T8 22 ) T4 ) )
(or ( <= ( + T4 120 )  ( + T8 22 ) ) ( <= ( + T8 94 )( + T4 73 ) ) )
(or ( <= ( + T4 163 )  ( + T8 94 ) ) ( <= ( + T8 188 )( + T4 120 ) ) )
(or ( <= ( + T4 246 )  ( + T8 188 ) ) ( <= ( + T8 274 )( + T4 163 ) ) )
(or ( <= ( + T4 325 )  ( + T8 274 ) ) ( <= ( + T8 357 )( + T4 246 ) ) )
(or ( <= ( + T4 400 )  ( + T8 357 ) ) ( <= ( + T8 424 )( + T4 325 ) ) )
(or ( <= ( + T5 65 ) T6 ) ( <= ( + T6 92 ) T5 ) )
(or ( <= ( + T5 67 )  ( + T6 92 ) ) ( <= ( + T6 124 )( + T5 65 ) ) )
(or ( <= ( + T5 85 )  ( + T6 124 ) ) ( <= ( + T6 220 )( + T5 67 ) ) )
(or ( <= ( + T5 183 )  ( + T6 220 ) ) ( <= ( + T6 257 )( + T5 85 ) ) )
(or ( <= ( + T5 221 )  ( + T6 257 ) ) ( <= ( + T6 304 )( + T5 183 ) ) )
(or ( <= ( + T5 241 )  ( + T6 304 ) ) ( <= ( + T6 345 )( + T5 221 ) ) )
(or ( <= ( + T5 65 ) T7 ) ( <= ( + T7 47 ) T5 ) )
(or ( <= ( + T5 67 )  ( + T7 47 ) ) ( <= ( + T7 75 )( + T5 65 ) ) )
(or ( <= ( + T5 85 )  ( + T7 75 ) ) ( <= ( + T7 107 )( + T5 67 ) ) )
(or ( <= ( + T5 183 )  ( + T7 107 ) ) ( <= ( + T7 168 )( + T5 85 ) ) )
(or ( <= ( + T5 221 )  ( + T7 168 ) ) ( <= ( + T7 218 )( + T5 183 ) ) )
(or ( <= ( + T5 241 )  ( + T7 218 ) ) ( <= ( + T7 281 )( + T5 221 ) ) )
(or ( <= ( + T5 65 ) T8 ) ( <= ( + T8 22 ) T5 ) )
(or ( <= ( + T5 67 )  ( + T8 22 ) ) ( <= ( + T8 94 )( + T5 65 ) ) )
(or ( <= ( + T5 85 )  ( + T8 94 ) ) ( <= ( + T8 188 )( + T5 67 ) ) )
(or ( <= ( + T5 183 )  ( + T8 188 ) ) ( <= ( + T8 274 )( + T5 85 ) ) )
(or ( <= ( + T5 221 )  ( + T8 274 ) ) ( <= ( + T8 357 )( + T5 183 ) ) )
(or ( <= ( + T5 241 )  ( + T8 357 ) ) ( <= ( + T8 424 )( + T5 221 ) ) )
(or ( <= ( + T6 92 ) T7 ) ( <= ( + T7 47 ) T6 ) )
(or ( <= ( + T6 124 )  ( + T7 47 ) ) ( <= ( + T7 75 )( + T6 92 ) ) )
(or ( <= ( + T6 220 )  ( + T7 75 ) ) ( <= ( + T7 107 )( + T6 124 ) ) )
(or ( <= ( + T6 257 )  ( + T7 107 ) ) ( <= ( + T7 168 )( + T6 220 ) ) )
(or ( <= ( + T6 304 )  ( + T7 168 ) ) ( <= ( + T7 218 )( + T6 257 ) ) )
(or ( <= ( + T6 345 )  ( + T7 218 ) ) ( <= ( + T7 281 )( + T6 304 ) ) )
(or ( <= ( + T6 92 ) T8 ) ( <= ( + T8 22 ) T6 ) )
(or ( <= ( + T6 124 )  ( + T8 22 ) ) ( <= ( + T8 94 )( + T6 92 ) ) )
(or ( <= ( + T6 220 )  ( + T8 94 ) ) ( <= ( + T8 188 )( + T6 124 ) ) )
(or ( <= ( + T6 257 )  ( + T8 188 ) ) ( <= ( + T8 274 )( + T6 220 ) ) )
(or ( <= ( + T6 304 )  ( + T8 274 ) ) ( <= ( + T8 357 )( + T6 257 ) ) )
(or ( <= ( + T6 345 )  ( + T8 357 ) ) ( <= ( + T8 424 )( + T6 304 ) ) )
(or ( <= ( + T7 47 ) T8 ) ( <= ( + T8 22 ) T7 ) )
(or ( <= ( + T7 75 )  ( + T8 22 ) ) ( <= ( + T8 94 )( + T7 47 ) ) )
(or ( <= ( + T7 107 )  ( + T8 94 ) ) ( <= ( + T8 188 )( + T7 75 ) ) )
(or ( <= ( + T7 168 )  ( + T8 188 ) ) ( <= ( + T8 274 )( + T7 107 ) ) )
(or ( <= ( + T7 218 )  ( + T8 274 ) ) ( <= ( + T8 357 )( + T7 168 ) ) )
(or ( <= ( + T7 281 )  ( + T8 357 ) ) ( <= ( + T8 424 )( + T7 218 ) ) )
( <= ( + T1 282 ) Z)
( <= ( + T2 249 ) Z)
( <= ( + T3 257 ) Z)
( <= ( + T4 400 ) Z)
( <= ( + T5 241 ) Z)
( <= ( + T6 345 ) Z)
( <= ( + T7 281 ) Z)
( <= ( + T8 424 ) Z)
( >= T1 0 )
( >= T2 0 )
( >= T3 0 )
( >= T4 0 )
( >= T5 0 )
( >= T6 0 )
( >= T7 0 )
( >= T8 0 )
) )
)(=> $phi $goal))))